27 50
1 2 7
1 3 15
1 4 20
1 5 12
2 6 10
2 7 8
3 8 22
3 9 18
4 10 25
4 11 30
5 12 14
5 13 17
6 14 12
6 15 9
7 16 20
7 17 25
8 18 28
8 19 35
9 20 40
9 21 45
10 22 50
11 12 8
11 13 10
14 15 6
16 17 5
18 19 11
20 21 13
22 23 9
23 24 7
24 25 14
25 26 18
26 27 20
1 9 5
2 11 4
6 10 6
13 21 7
16 26 10
18 22 8
12 25 9
15 23 12
3 14 11
5 24 15
7 27 17
19 20 3
4 17 5
8 22 9
9 26 14
10 16 6
11 24 8
13 15 4
21 25 7
23 27 11
2 5 3
12 16 7
14 19 6
18 23 9
1 27 18
3 25 12